sat
(:eliminated-vars    1
 :max-memory         18.02
 :memory             17.92
 :nlsat-propagations 7
 :nlsat-stages       3
 :num-allocs         5394
 :rlimit-count       1179
 :time               0.00
 :total-time         0.01)
